NAME: ACTUAL_TOURS/amz0312
TYPE: TOUR
COMMENT: RouteID_215548a3-ba66-4a0b-b581-c7dcc4cabefd
DIMENSION: 152
TOUR_SECTION
76
147
115
62
124
65
80
92
83
32
23
33
12
81
109
36
17
136
79
9
15
31
48
150
7
35
26
103
37
73
135
63
59
61
24
137
64
107
93
97
11
42
74
39
98
101
53
4
104
57
94
100
20
34
86
111
38
28
70
146
30
13
119
88
102
55
106
84
139
2
145
67
21
16
58
3
148
69
85
89
10
18
144
143
40
133
128
19
131
87
129
116
27
77
1
91
54
140
49
25
105
51
138
8
96
114
45
41
117
121
152
110
108
122
46
50
44
52
29
6
118
130
78
99
123
60
134
127
71
14
142
82
151
66
125
43
95
120
75
90
68
22
141
72
56
47
5
113
132
149
112
126
-1
EOF
